sat
(:max-memory         18.02
 :memory             17.92
 :nlsat-propagations 8
 :nlsat-stages       4
 :num-allocs         5348
 :rlimit-count       1028
 :time               0.00
 :total-time         0.01)
